array [1..45] of bool: ab = [true, true, true, true, false, true, true, true, false, false, false, false, false, false, true, true, true, false, false, false, false, true, false, true, true, true, true, false, true, true, true, false, true, false, true, false, true, true, false, true, true, false, false, true, false];
array [1..5] of int: c = [1, 1, 1, 1, 1];
array [1..9] of int: d = [2, 4, 1, 3, 3, 2, 5, 7, 7];
array [1..45] of int: ia = [1, 1, 0, 1, 0, 1, 1, 0, 1, 1, 1, 0, 1, 1, 1, 0, 1, 0, 1, 1, 0, 0, 0, 0, 1, 1, 0, 1, 0, 0, 0, 1, 1, 0, 0, 1, 0, 0, 1, 0, 1, 1, 1, 1, 0];
var bool: BOOL____00158 :: is_defined_var :: var_is_introduced;
var bool: BOOL____00162 :: is_defined_var :: var_is_introduced;
var bool: BOOL____00166 :: is_defined_var :: var_is_introduced;
var bool: BOOL____00170 :: is_defined_var :: var_is_introduced;
var bool: BOOL____00174 :: is_defined_var :: var_is_introduced;
var bool: BOOL____00178 :: is_defined_var :: var_is_introduced;
var bool: BOOL____00182 :: is_defined_var :: var_is_introduced;
var bool: BOOL____00186 :: is_defined_var :: var_is_introduced;
var bool: BOOL____00190 :: is_defined_var :: var_is_introduced;
var bool: BOOL____00194 :: is_defined_var :: var_is_introduced;
var bool: BOOL____00198 :: is_defined_var :: var_is_introduced;
var bool: BOOL____00202 :: is_defined_var :: var_is_introduced;
var bool: BOOL____00206 :: is_defined_var :: var_is_introduced;
var bool: BOOL____00210 :: is_defined_var :: var_is_introduced;
var bool: BOOL____00214 :: is_defined_var :: var_is_introduced;
var bool: BOOL____00218 :: is_defined_var :: var_is_introduced;
var bool: BOOL____00222 :: is_defined_var :: var_is_introduced;
var bool: BOOL____00226 :: is_defined_var :: var_is_introduced;
var bool: BOOL____00230 :: is_defined_var :: var_is_introduced;
var bool: BOOL____00234 :: is_defined_var :: var_is_introduced;
var bool: BOOL____00238 :: is_defined_var :: var_is_introduced;
var bool: BOOL____00242 :: is_defined_var :: var_is_introduced;
var bool: BOOL____00246 :: is_defined_var :: var_is_introduced;
var bool: BOOL____00250 :: is_defined_var :: var_is_introduced;
var bool: BOOL____00254 :: is_defined_var :: var_is_introduced;
var bool: BOOL____00258 :: is_defined_var :: var_is_introduced;
var bool: BOOL____00262 :: is_defined_var :: var_is_introduced;
var bool: BOOL____00266 :: is_defined_var :: var_is_introduced;
var bool: BOOL____00270 :: is_defined_var :: var_is_introduced;
var bool: BOOL____00274 :: is_defined_var :: var_is_introduced;
var bool: BOOL____00278 :: is_defined_var :: var_is_introduced;
var bool: BOOL____00282 :: is_defined_var :: var_is_introduced;
var bool: BOOL____00286 :: is_defined_var :: var_is_introduced;
var bool: BOOL____00290 :: is_defined_var :: var_is_introduced;
var bool: BOOL____00294 :: is_defined_var :: var_is_introduced;
var 1..7: INT____00001 :: is_defined_var :: var_is_introduced;
var 0..1: INT____00002 :: is_defined_var :: var_is_introduced;
var 0..7: INT____00003 :: is_defined_var :: var_is_introduced;
var 0..1: INT____00004 :: is_defined_var :: var_is_introduced;
var 0..7: INT____00005 :: is_defined_var :: var_is_introduced;
var 0..1: INT____00006 :: is_defined_var :: var_is_introduced;
var 0..7: INT____00007 :: is_defined_var :: var_is_introduced;
var 0..1: INT____00008 :: is_defined_var :: var_is_introduced;
var 0..7: INT____00009 :: is_defined_var :: var_is_introduced;
var 0..1: INT____00010 :: is_defined_var :: var_is_introduced;
var 0..7: INT____00011 :: is_defined_var :: var_is_introduced;
var 1..7: INT____00012 :: is_defined_var :: var_is_introduced;
var 0..1: INT____00013 :: is_defined_var :: var_is_introduced;
var 0..7: INT____00014 :: is_defined_var :: var_is_introduced;
var 0..1: INT____00015 :: is_defined_var :: var_is_introduced;
var 0..7: INT____00016 :: is_defined_var :: var_is_introduced;
var 0..1: INT____00017 :: is_defined_var :: var_is_introduced;
var 0..7: INT____00018 :: is_defined_var :: var_is_introduced;
var 0..1: INT____00019 :: is_defined_var :: var_is_introduced;
var 0..7: INT____00020 :: is_defined_var :: var_is_introduced;
var 0..1: INT____00021 :: is_defined_var :: var_is_introduced;
var 0..7: INT____00022 :: is_defined_var :: var_is_introduced;
var 1..7: INT____00023 :: is_defined_var :: var_is_introduced;
var 0..1: INT____00024 :: is_defined_var :: var_is_introduced;
var 0..7: INT____00025 :: is_defined_var :: var_is_introduced;
var 0..1: INT____00026 :: is_defined_var :: var_is_introduced;
var 0..7: INT____00027 :: is_defined_var :: var_is_introduced;
var 0..1: INT____00028 :: is_defined_var :: var_is_introduced;
var 0..7: INT____00029 :: is_defined_var :: var_is_introduced;
var 0..1: INT____00030 :: is_defined_var :: var_is_introduced;
var 0..7: INT____00031 :: is_defined_var :: var_is_introduced;
var 0..1: INT____00032 :: is_defined_var :: var_is_introduced;
var 0..7: INT____00033 :: is_defined_var :: var_is_introduced;
var 1..7: INT____00034 :: is_defined_var :: var_is_introduced;
var 0..1: INT____00035 :: is_defined_var :: var_is_introduced;
var 0..7: INT____00036 :: is_defined_var :: var_is_introduced;
var 0..1: INT____00037 :: is_defined_var :: var_is_introduced;
var 0..7: INT____00038 :: is_defined_var :: var_is_introduced;
var 0..1: INT____00039 :: is_defined_var :: var_is_introduced;
var 0..7: INT____00040 :: is_defined_var :: var_is_introduced;
var 0..1: INT____00041 :: is_defined_var :: var_is_introduced;
var 0..7: INT____00042 :: is_defined_var :: var_is_introduced;
var 0..1: INT____00043 :: is_defined_var :: var_is_introduced;
var 0..7: INT____00044 :: is_defined_var :: var_is_introduced;
var 1..7: INT____00045 :: is_defined_var :: var_is_introduced;
var 0..1: INT____00046 :: is_defined_var :: var_is_introduced;
var 0..7: INT____00047 :: is_defined_var :: var_is_introduced;
var 0..1: INT____00048 :: is_defined_var :: var_is_introduced;
var 0..7: INT____00049 :: is_defined_var :: var_is_introduced;
var 0..1: INT____00050 :: is_defined_var :: var_is_introduced;
var 0..7: INT____00051 :: is_defined_var :: var_is_introduced;
var 0..1: INT____00052 :: is_defined_var :: var_is_introduced;
var 0..7: INT____00053 :: is_defined_var :: var_is_introduced;
var 0..1: INT____00054 :: is_defined_var :: var_is_introduced;
var 0..7: INT____00055 :: is_defined_var :: var_is_introduced;
var 1..7: INT____00056 :: is_defined_var :: var_is_introduced;
var 0..1: INT____00057 :: is_defined_var :: var_is_introduced;
var 0..7: INT____00058 :: is_defined_var :: var_is_introduced;
var 0..1: INT____00059 :: is_defined_var :: var_is_introduced;
var 0..7: INT____00060 :: is_defined_var :: var_is_introduced;
var 0..1: INT____00061 :: is_defined_var :: var_is_introduced;
var 0..7: INT____00062 :: is_defined_var :: var_is_introduced;
var 0..1: INT____00063 :: is_defined_var :: var_is_introduced;
var 0..7: INT____00064 :: is_defined_var :: var_is_introduced;
var 0..1: INT____00065 :: is_defined_var :: var_is_introduced;
var 0..7: INT____00066 :: is_defined_var :: var_is_introduced;
var 1..7: INT____00067 :: is_defined_var :: var_is_introduced;
var 0..1: INT____00068 :: is_defined_var :: var_is_introduced;
var 0..7: INT____00069 :: is_defined_var :: var_is_introduced;
var 0..1: INT____00070 :: is_defined_var :: var_is_introduced;
var 0..7: INT____00071 :: is_defined_var :: var_is_introduced;
var 0..1: INT____00072 :: is_defined_var :: var_is_introduced;
var 0..7: INT____00073 :: is_defined_var :: var_is_introduced;
var 0..1: INT____00074 :: is_defined_var :: var_is_introduced;
var 0..7: INT____00075 :: is_defined_var :: var_is_introduced;
var 0..1: INT____00076 :: is_defined_var :: var_is_introduced;
var 0..7: INT____00077 :: is_defined_var :: var_is_introduced;
var 1..7: INT____00078 :: is_defined_var :: var_is_introduced;
var 0..1: INT____00079 :: is_defined_var :: var_is_introduced;
var 0..7: INT____00080 :: is_defined_var :: var_is_introduced;
var 0..1: INT____00081 :: is_defined_var :: var_is_introduced;
var 0..7: INT____00082 :: is_defined_var :: var_is_introduced;
var 0..1: INT____00083 :: is_defined_var :: var_is_introduced;
var 0..7: INT____00084 :: is_defined_var :: var_is_introduced;
var 0..1: INT____00085 :: is_defined_var :: var_is_introduced;
var 0..7: INT____00086 :: is_defined_var :: var_is_introduced;
var 0..1: INT____00087 :: is_defined_var :: var_is_introduced;
var 0..7: INT____00088 :: is_defined_var :: var_is_introduced;
var 1..7: INT____00089 :: is_defined_var :: var_is_introduced;
var 0..1: INT____00090 :: is_defined_var :: var_is_introduced;
var 0..7: INT____00091 :: is_defined_var :: var_is_introduced;
var 0..1: INT____00092 :: is_defined_var :: var_is_introduced;
var 0..7: INT____00093 :: is_defined_var :: var_is_introduced;
var 0..1: INT____00094 :: is_defined_var :: var_is_introduced;
var 0..7: INT____00095 :: is_defined_var :: var_is_introduced;
var 0..1: INT____00096 :: is_defined_var :: var_is_introduced;
var 0..7: INT____00097 :: is_defined_var :: var_is_introduced;
var 0..1: INT____00098 :: is_defined_var :: var_is_introduced;
var 0..7: INT____00099 :: is_defined_var :: var_is_introduced;
var 0..315: INT____00100 :: is_defined_var :: var_is_introduced;
var 1..41: INT____00101 :: is_defined_var :: var_is_introduced;
var 2..42: INT____00103 :: is_defined_var :: var_is_introduced;
var 3..43: INT____00105 :: is_defined_var :: var_is_introduced;
var 4..44: INT____00107 :: is_defined_var :: var_is_introduced;
var 5..45: INT____00109 :: is_defined_var :: var_is_introduced;
var 1..41: INT____00146 :: is_defined_var :: var_is_introduced;
var 2..42: INT____00148 :: is_defined_var :: var_is_introduced;
var 3..43: INT____00150 :: is_defined_var :: var_is_introduced;
var 4..44: INT____00152 :: is_defined_var :: var_is_introduced;
var 5..45: INT____00154 :: is_defined_var :: var_is_introduced;
var 1..41: INT____00157 :: is_defined_var :: var_is_introduced;
var 2..42: INT____00161 :: is_defined_var :: var_is_introduced;
var 3..43: INT____00165 :: is_defined_var :: var_is_introduced;
var 4..44: INT____00169 :: is_defined_var :: var_is_introduced;
var 5..45: INT____00173 :: is_defined_var :: var_is_introduced;
var 1..41: INT____00177 :: is_defined_var :: var_is_introduced;
var 2..42: INT____00181 :: is_defined_var :: var_is_introduced;
var 3..43: INT____00185 :: is_defined_var :: var_is_introduced;
var 4..44: INT____00189 :: is_defined_var :: var_is_introduced;
var 5..45: INT____00193 :: is_defined_var :: var_is_introduced;
var 1..41: INT____00197 :: is_defined_var :: var_is_introduced;
var 2..42: INT____00201 :: is_defined_var :: var_is_introduced;
var 3..43: INT____00205 :: is_defined_var :: var_is_introduced;
var 4..44: INT____00209 :: is_defined_var :: var_is_introduced;
var 5..45: INT____00213 :: is_defined_var :: var_is_introduced;
var 1..41: INT____00217 :: is_defined_var :: var_is_introduced;
var 2..42: INT____00221 :: is_defined_var :: var_is_introduced;
var 3..43: INT____00225 :: is_defined_var :: var_is_introduced;
var 4..44: INT____00229 :: is_defined_var :: var_is_introduced;
var 5..45: INT____00233 :: is_defined_var :: var_is_introduced;
var 1..41: INT____00237 :: is_defined_var :: var_is_introduced;
var 2..42: INT____00241 :: is_defined_var :: var_is_introduced;
var 3..43: INT____00245 :: is_defined_var :: var_is_introduced;
var 4..44: INT____00249 :: is_defined_var :: var_is_introduced;
var 5..45: INT____00253 :: is_defined_var :: var_is_introduced;
var 1..41: INT____00257 :: is_defined_var :: var_is_introduced;
var 2..42: INT____00261 :: is_defined_var :: var_is_introduced;
var 3..43: INT____00265 :: is_defined_var :: var_is_introduced;
var 4..44: INT____00269 :: is_defined_var :: var_is_introduced;
var 5..45: INT____00273 :: is_defined_var :: var_is_introduced;
var 1..41: INT____00277 :: is_defined_var :: var_is_introduced;
var 2..42: INT____00281 :: is_defined_var :: var_is_introduced;
var 3..43: INT____00285 :: is_defined_var :: var_is_introduced;
var 4..44: INT____00289 :: is_defined_var :: var_is_introduced;
var 5..45: INT____00293 :: is_defined_var :: var_is_introduced;
array [1..45] of var bool: aft;
array [1..45] of var bool: bef;
var 0..315: cost :: output_var = INT____00100;
array [1..45] of var bool: dur;
array [1..9] of var 1..9: s :: output_array([1..9]);
constraint array_bool_and([bef[11], aft[1]], dur[6]);
constraint array_bool_and([bef[12], aft[2]], dur[7]);
constraint array_bool_and([bef[13], aft[3]], dur[8]);
constraint array_bool_and([bef[14], aft[4]], dur[9]);
constraint array_bool_and([bef[15], aft[5]], dur[10]);
constraint array_bool_and([bef[16], aft[6]], dur[11]);
constraint array_bool_and([bef[17], aft[7]], dur[12]);
constraint array_bool_and([bef[18], aft[8]], dur[13]);
constraint array_bool_and([bef[19], aft[9]], dur[14]);
constraint array_bool_and([bef[20], aft[10]], dur[15]);
constraint array_bool_and([bef[21], aft[11]], dur[16]);
constraint array_bool_and([bef[22], aft[12]], dur[17]);
constraint array_bool_and([bef[23], aft[13]], dur[18]);
constraint array_bool_and([bef[24], aft[14]], dur[19]);
constraint array_bool_and([bef[25], aft[15]], dur[20]);
constraint array_bool_and([bef[26], aft[16]], dur[21]);
constraint array_bool_and([bef[27], aft[17]], dur[22]);
constraint array_bool_and([bef[28], aft[18]], dur[23]);
constraint array_bool_and([bef[29], aft[19]], dur[24]);
constraint array_bool_and([bef[30], aft[20]], dur[25]);
constraint array_bool_and([bef[31], aft[21]], dur[26]);
constraint array_bool_and([bef[32], aft[22]], dur[27]);
constraint array_bool_and([bef[33], aft[23]], dur[28]);
constraint array_bool_and([bef[34], aft[24]], dur[29]);
constraint array_bool_and([bef[35], aft[25]], dur[30]);
constraint array_bool_and([bef[36], aft[26]], dur[31]);
constraint array_bool_and([bef[37], aft[27]], dur[32]);
constraint array_bool_and([bef[38], aft[28]], dur[33]);
constraint array_bool_and([bef[39], aft[29]], dur[34]);
constraint array_bool_and([bef[40], aft[30]], dur[35]);
constraint array_bool_and([bef[41], aft[31]], dur[36]);
constraint array_bool_and([bef[42], aft[32]], dur[37]);
constraint array_bool_and([bef[43], aft[33]], dur[38]);
constraint array_bool_and([bef[44], aft[34]], dur[39]);
constraint array_bool_and([bef[45], aft[35]], dur[40]);
constraint array_bool_element(INT____00101, ab, dur[1]);
constraint array_bool_element(INT____00103, ab, dur[2]);
constraint array_bool_element(INT____00105, ab, dur[3]);
constraint array_bool_element(INT____00107, ab, dur[4]);
constraint array_bool_element(INT____00109, ab, dur[5]);
constraint array_bool_element(INT____00146, ab, dur[41]);
constraint array_bool_element(INT____00148, ab, dur[42]);
constraint array_bool_element(INT____00150, ab, dur[43]);
constraint array_bool_element(INT____00152, ab, dur[44]);
constraint array_bool_element(INT____00154, ab, dur[45]);
constraint array_bool_element(INT____00157, ab, BOOL____00158) :: defines_var(BOOL____00158);
constraint array_bool_element(INT____00161, ab, BOOL____00162) :: defines_var(BOOL____00162);
constraint array_bool_element(INT____00165, ab, BOOL____00166) :: defines_var(BOOL____00166);
constraint array_bool_element(INT____00169, ab, BOOL____00170) :: defines_var(BOOL____00170);
constraint array_bool_element(INT____00173, ab, BOOL____00174) :: defines_var(BOOL____00174);
constraint array_bool_element(INT____00177, ab, BOOL____00178) :: defines_var(BOOL____00178);
constraint array_bool_element(INT____00181, ab, BOOL____00182) :: defines_var(BOOL____00182);
constraint array_bool_element(INT____00185, ab, BOOL____00186) :: defines_var(BOOL____00186);
constraint array_bool_element(INT____00189, ab, BOOL____00190) :: defines_var(BOOL____00190);
constraint array_bool_element(INT____00193, ab, BOOL____00194) :: defines_var(BOOL____00194);
constraint array_bool_element(INT____00197, ab, BOOL____00198) :: defines_var(BOOL____00198);
constraint array_bool_element(INT____00201, ab, BOOL____00202) :: defines_var(BOOL____00202);
constraint array_bool_element(INT____00205, ab, BOOL____00206) :: defines_var(BOOL____00206);
constraint array_bool_element(INT____00209, ab, BOOL____00210) :: defines_var(BOOL____00210);
constraint array_bool_element(INT____00213, ab, BOOL____00214) :: defines_var(BOOL____00214);
constraint array_bool_element(INT____00217, ab, BOOL____00218) :: defines_var(BOOL____00218);
constraint array_bool_element(INT____00221, ab, BOOL____00222) :: defines_var(BOOL____00222);
constraint array_bool_element(INT____00225, ab, BOOL____00226) :: defines_var(BOOL____00226);
constraint array_bool_element(INT____00229, ab, BOOL____00230) :: defines_var(BOOL____00230);
constraint array_bool_element(INT____00233, ab, BOOL____00234) :: defines_var(BOOL____00234);
constraint array_bool_element(INT____00237, ab, BOOL____00238) :: defines_var(BOOL____00238);
constraint array_bool_element(INT____00241, ab, BOOL____00242) :: defines_var(BOOL____00242);
constraint array_bool_element(INT____00245, ab, BOOL____00246) :: defines_var(BOOL____00246);
constraint array_bool_element(INT____00249, ab, BOOL____00250) :: defines_var(BOOL____00250);
constraint array_bool_element(INT____00253, ab, BOOL____00254) :: defines_var(BOOL____00254);
constraint array_bool_element(INT____00257, ab, BOOL____00258) :: defines_var(BOOL____00258);
constraint array_bool_element(INT____00261, ab, BOOL____00262) :: defines_var(BOOL____00262);
constraint array_bool_element(INT____00265, ab, BOOL____00266) :: defines_var(BOOL____00266);
constraint array_bool_element(INT____00269, ab, BOOL____00270) :: defines_var(BOOL____00270);
constraint array_bool_element(INT____00273, ab, BOOL____00274) :: defines_var(BOOL____00274);
constraint array_bool_element(INT____00277, ab, BOOL____00278) :: defines_var(BOOL____00278);
constraint array_bool_element(INT____00281, ab, BOOL____00282) :: defines_var(BOOL____00282);
constraint array_bool_element(INT____00285, ab, BOOL____00286) :: defines_var(BOOL____00286);
constraint array_bool_element(INT____00289, ab, BOOL____00290) :: defines_var(BOOL____00290);
constraint array_bool_element(INT____00293, ab, BOOL____00294) :: defines_var(BOOL____00294);
constraint array_bool_or([BOOL____00158, aft[6]], aft[1]);
constraint array_bool_or([BOOL____00158, bef[6]], bef[11]);
constraint array_bool_or([BOOL____00162, aft[7]], aft[2]);
constraint array_bool_or([BOOL____00162, bef[7]], bef[12]);
constraint array_bool_or([BOOL____00166, aft[8]], aft[3]);
constraint array_bool_or([BOOL____00166, bef[8]], bef[13]);
constraint array_bool_or([BOOL____00170, aft[9]], aft[4]);
constraint array_bool_or([BOOL____00170, bef[9]], bef[14]);
constraint array_bool_or([BOOL____00174, aft[10]], aft[5]);
constraint array_bool_or([BOOL____00174, bef[10]], bef[15]);
constraint array_bool_or([BOOL____00178, aft[11]], aft[6]);
constraint array_bool_or([BOOL____00178, bef[11]], bef[16]);
constraint array_bool_or([BOOL____00182, aft[12]], aft[7]);
constraint array_bool_or([BOOL____00182, bef[12]], bef[17]);
constraint array_bool_or([BOOL____00186, aft[13]], aft[8]);
constraint array_bool_or([BOOL____00186, bef[13]], bef[18]);
constraint array_bool_or([BOOL____00190, aft[14]], aft[9]);
constraint array_bool_or([BOOL____00190, bef[14]], bef[19]);
constraint array_bool_or([BOOL____00194, aft[15]], aft[10]);
constraint array_bool_or([BOOL____00194, bef[15]], bef[20]);
constraint array_bool_or([BOOL____00198, aft[16]], aft[11]);
constraint array_bool_or([BOOL____00198, bef[16]], bef[21]);
constraint array_bool_or([BOOL____00202, aft[17]], aft[12]);
constraint array_bool_or([BOOL____00202, bef[17]], bef[22]);
constraint array_bool_or([BOOL____00206, aft[18]], aft[13]);
constraint array_bool_or([BOOL____00206, bef[18]], bef[23]);
constraint array_bool_or([BOOL____00210, aft[19]], aft[14]);
constraint array_bool_or([BOOL____00210, bef[19]], bef[24]);
constraint array_bool_or([BOOL____00214, aft[20]], aft[15]);
constraint array_bool_or([BOOL____00214, bef[20]], bef[25]);
constraint array_bool_or([BOOL____00218, aft[21]], aft[16]);
constraint array_bool_or([BOOL____00218, bef[21]], bef[26]);
constraint array_bool_or([BOOL____00222, aft[22]], aft[17]);
constraint array_bool_or([BOOL____00222, bef[22]], bef[27]);
constraint array_bool_or([BOOL____00226, aft[23]], aft[18]);
constraint array_bool_or([BOOL____00226, bef[23]], bef[28]);
constraint array_bool_or([BOOL____00230, aft[24]], aft[19]);
constraint array_bool_or([BOOL____00230, bef[24]], bef[29]);
constraint array_bool_or([BOOL____00234, aft[25]], aft[20]);
constraint array_bool_or([BOOL____00234, bef[25]], bef[30]);
constraint array_bool_or([BOOL____00238, aft[26]], aft[21]);
constraint array_bool_or([BOOL____00238, bef[26]], bef[31]);
constraint array_bool_or([BOOL____00242, aft[27]], aft[22]);
constraint array_bool_or([BOOL____00242, bef[27]], bef[32]);
constraint array_bool_or([BOOL____00246, aft[28]], aft[23]);
constraint array_bool_or([BOOL____00246, bef[28]], bef[33]);
constraint array_bool_or([BOOL____00250, aft[29]], aft[24]);
constraint array_bool_or([BOOL____00250, bef[29]], bef[34]);
constraint array_bool_or([BOOL____00254, aft[30]], aft[25]);
constraint array_bool_or([BOOL____00254, bef[30]], bef[35]);
constraint array_bool_or([BOOL____00258, aft[31]], aft[26]);
constraint array_bool_or([BOOL____00258, bef[31]], bef[36]);
constraint array_bool_or([BOOL____00262, aft[32]], aft[27]);
constraint array_bool_or([BOOL____00262, bef[32]], bef[37]);
constraint array_bool_or([BOOL____00266, aft[33]], aft[28]);
constraint array_bool_or([BOOL____00266, bef[33]], bef[38]);
constraint array_bool_or([BOOL____00270, aft[34]], aft[29]);
constraint array_bool_or([BOOL____00270, bef[34]], bef[39]);
constraint array_bool_or([BOOL____00274, aft[35]], aft[30]);
constraint array_bool_or([BOOL____00274, bef[35]], bef[40]);
constraint array_bool_or([BOOL____00278, aft[36]], aft[31]);
constraint array_bool_or([BOOL____00278, bef[36]], bef[41]);
constraint array_bool_or([BOOL____00282, aft[37]], aft[32]);
constraint array_bool_or([BOOL____00282, bef[37]], bef[42]);
constraint array_bool_or([BOOL____00286, aft[38]], aft[33]);
constraint array_bool_or([BOOL____00286, bef[38]], bef[43]);
constraint array_bool_or([BOOL____00290, aft[39]], aft[34]);
constraint array_bool_or([BOOL____00290, bef[39]], bef[44]);
constraint array_bool_or([BOOL____00294, aft[40]], aft[35]);
constraint array_bool_or([BOOL____00294, bef[40]], bef[45]);
constraint array_bool_or([dur[1], bef[1]], bef[6]);
constraint array_bool_or([dur[2], bef[2]], bef[7]);
constraint array_bool_or([dur[3], bef[3]], bef[8]);
constraint array_bool_or([dur[4], bef[4]], bef[9]);
constraint array_bool_or([dur[5], bef[5]], bef[10]);
constraint array_bool_or([dur[41], aft[41]], aft[36]);
constraint array_bool_or([dur[42], aft[42]], aft[37]);
constraint array_bool_or([dur[43], aft[43]], aft[38]);
constraint array_bool_or([dur[44], aft[44]], aft[39]);
constraint array_bool_or([dur[45], aft[45]], aft[40]);
constraint array_int_element(s[1], d, INT____00001) :: defines_var(INT____00001);
constraint array_int_element(s[2], d, INT____00012) :: defines_var(INT____00012);
constraint array_int_element(s[3], d, INT____00023) :: defines_var(INT____00023);
constraint array_int_element(s[4], d, INT____00034) :: defines_var(INT____00034);
constraint array_int_element(s[5], d, INT____00045) :: defines_var(INT____00045);
constraint array_int_element(s[6], d, INT____00056) :: defines_var(INT____00056);
constraint array_int_element(s[7], d, INT____00067) :: defines_var(INT____00067);
constraint array_int_element(s[8], d, INT____00078) :: defines_var(INT____00078);
constraint array_int_element(s[9], d, INT____00089) :: defines_var(INT____00089);
constraint bool2int(dur[1], INT____00002) :: defines_var(INT____00002);
constraint bool2int(dur[2], INT____00004) :: defines_var(INT____00004);
constraint bool2int(dur[3], INT____00006) :: defines_var(INT____00006);
constraint bool2int(dur[4], INT____00008) :: defines_var(INT____00008);
constraint bool2int(dur[5], INT____00010) :: defines_var(INT____00010);
constraint bool2int(dur[6], INT____00013) :: defines_var(INT____00013);
constraint bool2int(dur[7], INT____00015) :: defines_var(INT____00015);
constraint bool2int(dur[8], INT____00017) :: defines_var(INT____00017);
constraint bool2int(dur[9], INT____00019) :: defines_var(INT____00019);
constraint bool2int(dur[10], INT____00021) :: defines_var(INT____00021);
constraint bool2int(dur[11], INT____00024) :: defines_var(INT____00024);
constraint bool2int(dur[12], INT____00026) :: defines_var(INT____00026);
constraint bool2int(dur[13], INT____00028) :: defines_var(INT____00028);
constraint bool2int(dur[14], INT____00030) :: defines_var(INT____00030);
constraint bool2int(dur[15], INT____00032) :: defines_var(INT____00032);
constraint bool2int(dur[16], INT____00035) :: defines_var(INT____00035);
constraint bool2int(dur[17], INT____00037) :: defines_var(INT____00037);
constraint bool2int(dur[18], INT____00039) :: defines_var(INT____00039);
constraint bool2int(dur[19], INT____00041) :: defines_var(INT____00041);
constraint bool2int(dur[20], INT____00043) :: defines_var(INT____00043);
constraint bool2int(dur[21], INT____00046) :: defines_var(INT____00046);
constraint bool2int(dur[22], INT____00048) :: defines_var(INT____00048);
constraint bool2int(dur[23], INT____00050) :: defines_var(INT____00050);
constraint bool2int(dur[24], INT____00052) :: defines_var(INT____00052);
constraint bool2int(dur[25], INT____00054) :: defines_var(INT____00054);
constraint bool2int(dur[26], INT____00057) :: defines_var(INT____00057);
constraint bool2int(dur[27], INT____00059) :: defines_var(INT____00059);
constraint bool2int(dur[28], INT____00061) :: defines_var(INT____00061);
constraint bool2int(dur[29], INT____00063) :: defines_var(INT____00063);
constraint bool2int(dur[30], INT____00065) :: defines_var(INT____00065);
constraint bool2int(dur[31], INT____00068) :: defines_var(INT____00068);
constraint bool2int(dur[32], INT____00070) :: defines_var(INT____00070);
constraint bool2int(dur[33], INT____00072) :: defines_var(INT____00072);
constraint bool2int(dur[34], INT____00074) :: defines_var(INT____00074);
constraint bool2int(dur[35], INT____00076) :: defines_var(INT____00076);
constraint bool2int(dur[36], INT____00079) :: defines_var(INT____00079);
constraint bool2int(dur[37], INT____00081) :: defines_var(INT____00081);
constraint bool2int(dur[38], INT____00083) :: defines_var(INT____00083);
constraint bool2int(dur[39], INT____00085) :: defines_var(INT____00085);
constraint bool2int(dur[40], INT____00087) :: defines_var(INT____00087);
constraint bool2int(dur[41], INT____00090) :: defines_var(INT____00090);
constraint bool2int(dur[42], INT____00092) :: defines_var(INT____00092);
constraint bool2int(dur[43], INT____00094) :: defines_var(INT____00094);
constraint bool2int(dur[44], INT____00096) :: defines_var(INT____00096);
constraint bool2int(dur[45], INT____00098) :: defines_var(INT____00098);
constraint bool_eq(aft[41], false);
constraint bool_eq(aft[42], false);
constraint bool_eq(aft[43], false);
constraint bool_eq(aft[44], false);
constraint bool_eq(aft[45], false);
constraint bool_eq(bef[1], false);
constraint bool_eq(bef[2], false);
constraint bool_eq(bef[3], false);
constraint bool_eq(bef[4], false);
constraint bool_eq(bef[5], false);
constraint int_lin_eq([-1, 5], [INT____00101, s[1]], 4) :: defines_var(INT____00101) :: domain;
constraint int_lin_eq([-1, 5], [INT____00103, s[1]], 3) :: defines_var(INT____00103) :: domain;
constraint int_lin_eq([-1, 5], [INT____00105, s[1]], 2) :: defines_var(INT____00105) :: domain;
constraint int_lin_eq([-1, 5], [INT____00107, s[1]], 1) :: defines_var(INT____00107) :: domain;
constraint int_lin_eq([-1, 5], [INT____00109, s[1]], 0) :: defines_var(INT____00109) :: domain;
constraint int_lin_eq([-1, 5], [INT____00146, s[9]], 4) :: defines_var(INT____00146) :: domain;
constraint int_lin_eq([-1, 5], [INT____00148, s[9]], 3) :: defines_var(INT____00148) :: domain;
constraint int_lin_eq([-1, 5], [INT____00150, s[9]], 2) :: defines_var(INT____00150) :: domain;
constraint int_lin_eq([-1, 5], [INT____00152, s[9]], 1) :: defines_var(INT____00152) :: domain;
constraint int_lin_eq([-1, 5], [INT____00154, s[9]], 0) :: defines_var(INT____00154) :: domain;
constraint int_lin_eq([-1, 5], [INT____00157, s[2]], 4) :: defines_var(INT____00157) :: domain;
constraint int_lin_eq([-1, 5], [INT____00161, s[2]], 3) :: defines_var(INT____00161) :: domain;
constraint int_lin_eq([-1, 5], [INT____00165, s[2]], 2) :: defines_var(INT____00165) :: domain;
constraint int_lin_eq([-1, 5], [INT____00169, s[2]], 1) :: defines_var(INT____00169) :: domain;
constraint int_lin_eq([-1, 5], [INT____00173, s[2]], 0) :: defines_var(INT____00173) :: domain;
constraint int_lin_eq([-1, 5], [INT____00177, s[3]], 4) :: defines_var(INT____00177) :: domain;
constraint int_lin_eq([-1, 5], [INT____00181, s[3]], 3) :: defines_var(INT____00181) :: domain;
constraint int_lin_eq([-1, 5], [INT____00185, s[3]], 2) :: defines_var(INT____00185) :: domain;
constraint int_lin_eq([-1, 5], [INT____00189, s[3]], 1) :: defines_var(INT____00189) :: domain;
constraint int_lin_eq([-1, 5], [INT____00193, s[3]], 0) :: defines_var(INT____00193) :: domain;
constraint int_lin_eq([-1, 5], [INT____00197, s[4]], 4) :: defines_var(INT____00197) :: domain;
constraint int_lin_eq([-1, 5], [INT____00201, s[4]], 3) :: defines_var(INT____00201) :: domain;
constraint int_lin_eq([-1, 5], [INT____00205, s[4]], 2) :: defines_var(INT____00205) :: domain;
constraint int_lin_eq([-1, 5], [INT____00209, s[4]], 1) :: defines_var(INT____00209) :: domain;
constraint int_lin_eq([-1, 5], [INT____00213, s[4]], 0) :: defines_var(INT____00213) :: domain;
constraint int_lin_eq([-1, 5], [INT____00217, s[5]], 4) :: defines_var(INT____00217) :: domain;
constraint int_lin_eq([-1, 5], [INT____00221, s[5]], 3) :: defines_var(INT____00221) :: domain;
constraint int_lin_eq([-1, 5], [INT____00225, s[5]], 2) :: defines_var(INT____00225) :: domain;
constraint int_lin_eq([-1, 5], [INT____00229, s[5]], 1) :: defines_var(INT____00229) :: domain;
constraint int_lin_eq([-1, 5], [INT____00233, s[5]], 0) :: defines_var(INT____00233) :: domain;
constraint int_lin_eq([-1, 5], [INT____00237, s[6]], 4) :: defines_var(INT____00237) :: domain;
constraint int_lin_eq([-1, 5], [INT____00241, s[6]], 3) :: defines_var(INT____00241) :: domain;
constraint int_lin_eq([-1, 5], [INT____00245, s[6]], 2) :: defines_var(INT____00245) :: domain;
constraint int_lin_eq([-1, 5], [INT____00249, s[6]], 1) :: defines_var(INT____00249) :: domain;
constraint int_lin_eq([-1, 5], [INT____00253, s[6]], 0) :: defines_var(INT____00253) :: domain;
constraint int_lin_eq([-1, 5], [INT____00257, s[7]], 4) :: defines_var(INT____00257) :: domain;
constraint int_lin_eq([-1, 5], [INT____00261, s[7]], 3) :: defines_var(INT____00261) :: domain;
constraint int_lin_eq([-1, 5], [INT____00265, s[7]], 2) :: defines_var(INT____00265) :: domain;
constraint int_lin_eq([-1, 5], [INT____00269, s[7]], 1) :: defines_var(INT____00269) :: domain;
constraint int_lin_eq([-1, 5], [INT____00273, s[7]], 0) :: defines_var(INT____00273) :: domain;
constraint int_lin_eq([-1, 5], [INT____00277, s[8]], 4) :: defines_var(INT____00277) :: domain;
constraint int_lin_eq([-1, 5], [INT____00281, s[8]], 3) :: defines_var(INT____00281) :: domain;
constraint int_lin_eq([-1, 5], [INT____00285, s[8]], 2) :: defines_var(INT____00285) :: domain;
constraint int_lin_eq([-1, 5], [INT____00289, s[8]], 1) :: defines_var(INT____00289) :: domain;
constraint int_lin_eq([-1, 5], [INT____00293, s[8]], 0) :: defines_var(INT____00293) :: domain;
constraint int_lin_eq([-1, 1, 1, 1, 1, 1, 1, 1, 1, 1, 1, 1, 1, 1, 1, 1, 1, 1, 1, 1, 1, 1, 1, 1, 1, 1, 1, 1, 1, 1, 1, 1, 1, 1, 1, 1, 1, 1, 1, 1, 1, 1, 1, 1, 1, 1], [INT____00100, INT____00003, INT____00005, INT____00007, INT____00009, INT____00011, INT____00014, INT____00016, INT____00018, INT____00020, INT____00022, INT____00025, INT____00027, INT____00029, INT____00031, INT____00033, INT____00036, INT____00038, INT____00040, INT____00042, INT____00044, INT____00047, INT____00049, INT____00051, INT____00053, INT____00055, INT____00058, INT____00060, INT____00062, INT____00064, INT____00066, INT____00069, INT____00071, INT____00073, INT____00075, INT____00077, INT____00080, INT____00082, INT____00084, INT____00086, INT____00088, INT____00091, INT____00093, INT____00095, INT____00097, INT____00099], 0) :: defines_var(INT____00100);
constraint int_ne(s[1], s[2]);
constraint int_ne(s[1], s[3]);
constraint int_ne(s[1], s[4]);
constraint int_ne(s[1], s[5]);
constraint int_ne(s[1], s[6]);
constraint int_ne(s[1], s[7]);
constraint int_ne(s[1], s[8]);
constraint int_ne(s[1], s[9]);
constraint int_ne(s[2], s[3]);
constraint int_ne(s[2], s[4]);
constraint int_ne(s[2], s[5]);
constraint int_ne(s[2], s[6]);
constraint int_ne(s[2], s[7]);
constraint int_ne(s[2], s[8]);
constraint int_ne(s[2], s[9]);
constraint int_ne(s[3], s[4]);
constraint int_ne(s[3], s[5]);
constraint int_ne(s[3], s[6]);
constraint int_ne(s[3], s[7]);
constraint int_ne(s[3], s[8]);
constraint int_ne(s[3], s[9]);
constraint int_ne(s[4], s[5]);
constraint int_ne(s[4], s[6]);
constraint int_ne(s[4], s[7]);
constraint int_ne(s[4], s[8]);
constraint int_ne(s[4], s[9]);
constraint int_ne(s[5], s[6]);
constraint int_ne(s[5], s[7]);
constraint int_ne(s[5], s[8]);
constraint int_ne(s[5], s[9]);
constraint int_ne(s[6], s[7]);
constraint int_ne(s[6], s[8]);
constraint int_ne(s[6], s[9]);
constraint int_ne(s[7], s[8]);
constraint int_ne(s[7], s[9]);
constraint int_ne(s[8], s[9]);
constraint int_times(INT____00001, INT____00002, INT____00003) :: defines_var(INT____00003);
constraint int_times(INT____00001, INT____00004, INT____00005) :: defines_var(INT____00005);
constraint int_times(INT____00001, INT____00006, INT____00007) :: defines_var(INT____00007);
constraint int_times(INT____00001, INT____00008, INT____00009) :: defines_var(INT____00009);
constraint int_times(INT____00001, INT____00010, INT____00011) :: defines_var(INT____00011);
constraint int_times(INT____00012, INT____00013, INT____00014) :: defines_var(INT____00014);
constraint int_times(INT____00012, INT____00015, INT____00016) :: defines_var(INT____00016);
constraint int_times(INT____00012, INT____00017, INT____00018) :: defines_var(INT____00018);
constraint int_times(INT____00012, INT____00019, INT____00020) :: defines_var(INT____00020);
constraint int_times(INT____00012, INT____00021, INT____00022) :: defines_var(INT____00022);
constraint int_times(INT____00023, INT____00024, INT____00025) :: defines_var(INT____00025);
constraint int_times(INT____00023, INT____00026, INT____00027) :: defines_var(INT____00027);
constraint int_times(INT____00023, INT____00028, INT____00029) :: defines_var(INT____00029);
constraint int_times(INT____00023, INT____00030, INT____00031) :: defines_var(INT____00031);
constraint int_times(INT____00023, INT____00032, INT____00033) :: defines_var(INT____00033);
constraint int_times(INT____00034, INT____00035, INT____00036) :: defines_var(INT____00036);
constraint int_times(INT____00034, INT____00037, INT____00038) :: defines_var(INT____00038);
constraint int_times(INT____00034, INT____00039, INT____00040) :: defines_var(INT____00040);
constraint int_times(INT____00034, INT____00041, INT____00042) :: defines_var(INT____00042);
constraint int_times(INT____00034, INT____00043, INT____00044) :: defines_var(INT____00044);
constraint int_times(INT____00045, INT____00046, INT____00047) :: defines_var(INT____00047);
constraint int_times(INT____00045, INT____00048, INT____00049) :: defines_var(INT____00049);
constraint int_times(INT____00045, INT____00050, INT____00051) :: defines_var(INT____00051);
constraint int_times(INT____00045, INT____00052, INT____00053) :: defines_var(INT____00053);
constraint int_times(INT____00045, INT____00054, INT____00055) :: defines_var(INT____00055);
constraint int_times(INT____00056, INT____00057, INT____00058) :: defines_var(INT____00058);
constraint int_times(INT____00056, INT____00059, INT____00060) :: defines_var(INT____00060);
constraint int_times(INT____00056, INT____00061, INT____00062) :: defines_var(INT____00062);
constraint int_times(INT____00056, INT____00063, INT____00064) :: defines_var(INT____00064);
constraint int_times(INT____00056, INT____00065, INT____00066) :: defines_var(INT____00066);
constraint int_times(INT____00067, INT____00068, INT____00069) :: defines_var(INT____00069);
constraint int_times(INT____00067, INT____00070, INT____00071) :: defines_var(INT____00071);
constraint int_times(INT____00067, INT____00072, INT____00073) :: defines_var(INT____00073);
constraint int_times(INT____00067, INT____00074, INT____00075) :: defines_var(INT____00075);
constraint int_times(INT____00067, INT____00076, INT____00077) :: defines_var(INT____00077);
constraint int_times(INT____00078, INT____00079, INT____00080) :: defines_var(INT____00080);
constraint int_times(INT____00078, INT____00081, INT____00082) :: defines_var(INT____00082);
constraint int_times(INT____00078, INT____00083, INT____00084) :: defines_var(INT____00084);
constraint int_times(INT____00078, INT____00085, INT____00086) :: defines_var(INT____00086);
constraint int_times(INT____00078, INT____00087, INT____00088) :: defines_var(INT____00088);
constraint int_times(INT____00089, INT____00090, INT____00091) :: defines_var(INT____00091);
constraint int_times(INT____00089, INT____00092, INT____00093) :: defines_var(INT____00093);
constraint int_times(INT____00089, INT____00094, INT____00095) :: defines_var(INT____00095);
constraint int_times(INT____00089, INT____00096, INT____00097) :: defines_var(INT____00097);
constraint int_times(INT____00089, INT____00098, INT____00099) :: defines_var(INT____00099);
solve  :: int_search(s, first_fail, indomain, complete) minimize INT____00100;
